(set-logic QF_BV)
(declare-fun autoname_1 () (_ BitVec 1))
(declare-fun autoname_2 () (_ BitVec 1))
(declare-fun autoname_3 () (_ BitVec 1))
(declare-fun autoname_4 () (_ BitVec 1))
(declare-fun count_0 () (_ BitVec 4))
(declare-fun gamma_0 () (_ BitVec 8))
(declare-fun max_0 () (_ BitVec 4))
(declare-fun nl_0 () (_ BitVec 4))
(declare-fun nl_1 () (_ BitVec 4))
(declare-fun nloss_0 () (_ BitVec 1))
(declare-fun nloss_1 () (_ BitVec 1))
(declare-fun reset_1 () (_ BitVec 1))
(declare-fun scan_0 () (_ BitVec 4))
(define-fun $e1 () (_ BitVec 4) (_ bv0 4))
(define-fun $e2 () (_ BitVec 8) (_ bv0 8))
(define-fun $e3 () (_ BitVec 8) (_ bv254 8))
(define-fun $e4 () (_ BitVec 8) (_ bv2 8))
(define-fun $e5 () (_ BitVec 8) (_ bv252 8))
(define-fun $e6 () (_ BitVec 8) (_ bv4 8))
(define-fun $e7 () (_ BitVec 8) (_ bv250 8))
(define-fun $e8 () (_ BitVec 4) (_ bv14 4))
(define-fun $e9 () (_ BitVec 8) (_ bv6 8))
(define-fun $e10 () (_ BitVec 4) (_ bv2 4))
(define-fun $e11 () (_ BitVec 8) (_ bv248 8))
(define-fun $e12 () (_ BitVec 8) (_ bv8 8))
(define-fun $e13 () (_ BitVec 8) (_ bv246 8))
(define-fun $e14 () (_ BitVec 8) (_ bv16 8))
(define-fun $e15 () (_ BitVec 8) (_ bv238 8))
(define-fun $e16 () (_ BitVec 8) (_ bv18 8))
(define-fun $e17 () (_ BitVec 8) (_ bv236 8))
(define-fun $e18 () (_ BitVec 8) (_ bv20 8))
(define-fun $e19 () (_ BitVec 8) (_ bv234 8))
(define-fun $e20 () (_ BitVec 8) (_ bv22 8))
(define-fun $e21 () (_ BitVec 8) (_ bv232 8))
(define-fun $e22 () (_ BitVec 8) (_ bv24 8))
(define-fun $e23 () (_ BitVec 8) (_ bv230 8))
(define-fun $e24 () (_ BitVec 8) (_ bv32 8))
(define-fun $e25 () (_ BitVec 8) (_ bv222 8))
(define-fun $e26 () (_ BitVec 8) (_ bv34 8))
(define-fun $e27 () (_ BitVec 8) (_ bv220 8))
(define-fun $e28 () (_ BitVec 8) (_ bv36 8))
(define-fun $e29 () (_ BitVec 8) (_ bv218 8))
(define-fun $e30 () (_ BitVec 4) (_ bv4 4))
(define-fun $e31 () (_ BitVec 1) (ite (= nl_1 $e1) #b1 #b0))
(define-fun $e32 () (_ BitVec 1) (ite (= gamma_0 $e2) #b1 #b0))
(define-fun $e33 () (_ BitVec 1) (ite (= nl_0 nl_1) #b1 #b0))
(define-fun $e34 () (_ BitVec 1) (ite (= gamma_0 (bvnot $e3)) #b1 #b0))
(define-fun $e35 () (_ BitVec 1) (ite (= gamma_0 $e4) #b1 #b0))
(define-fun $e36 () (_ BitVec 1) (ite (= gamma_0 (bvnot $e5)) #b1 #b0))
(define-fun $e37 () (_ BitVec 1) (ite (= gamma_0 $e6) #b1 #b0))
(define-fun $e38 () (_ BitVec 1) (ite (= gamma_0 (bvnot $e7)) #b1 #b0))
(define-fun $e39 () (_ BitVec 1) (ite (= nl_1 (bvnot $e8)) #b1 #b0))
(define-fun $e40 () (_ BitVec 1) (ite (= gamma_0 $e9) #b1 #b0))
(define-fun $e41 () (_ BitVec 4) (bvmul scan_0 $e10))
(define-fun $e42 () (_ BitVec 4) (bvadd max_0 $e41))
(define-fun $e43 () (_ BitVec 1) (ite (= count_0 $e42) #b1 #b0))
(define-fun $e44 () (_ BitVec 1) (bvand (bvnot $e31) $e43))
(define-fun $e45 () (_ BitVec 1) (bvand (bvnot $e33) (bvnot $e43)))
(define-fun $e46 () (_ BitVec 1) (bvand (bvnot $e44) (bvnot $e45)))
(define-fun $e47 () (_ BitVec 1) (ite (= gamma_0 (bvnot $e11)) #b1 #b0))
(define-fun $e48 () (_ BitVec 1) (ite (= gamma_0 $e12) #b1 #b0))
(define-fun $e49 () (_ BitVec 1) (ite (= gamma_0 (bvnot $e13)) #b1 #b0))
(define-fun $e50 () (_ BitVec 1) (ite (= gamma_0 $e14) #b1 #b0))
(define-fun $e51 () (_ BitVec 1) (ite (= gamma_0 (bvnot $e15)) #b1 #b0))
(define-fun $e52 () (_ BitVec 1) (ite (= gamma_0 $e16) #b1 #b0))
(define-fun $e53 () (_ BitVec 1) (ite (= count_0 $e1) #b1 #b0))
(define-fun $e54 () (_ BitVec 1) (bvand (bvnot $e31) $e53))
(define-fun $e55 () (_ BitVec 1) (bvand (bvnot $e33) (bvnot $e53)))
(define-fun $e56 () (_ BitVec 1) (bvand (bvnot $e54) (bvnot $e55)))
(define-fun $e57 () (_ BitVec 1) (ite (= gamma_0 (bvnot $e17)) #b1 #b0))
(define-fun $e58 () (_ BitVec 1) (ite (= gamma_0 $e18) #b1 #b0))
(define-fun $e59 () (_ BitVec 1) (ite (= gamma_0 (bvnot $e19)) #b1 #b0))
(define-fun $e60 () (_ BitVec 1) (ite (= gamma_0 $e20) #b1 #b0))
(define-fun $e61 () (_ BitVec 1) (ite (= gamma_0 (bvnot $e21)) #b1 #b0))
(define-fun $e62 () (_ BitVec 1) (ite (= gamma_0 $e22) #b1 #b0))
(define-fun $e63 () (_ BitVec 1) (ite (= gamma_0 (bvnot $e23)) #b1 #b0))
(define-fun $e64 () (_ BitVec 1) (ite (= gamma_0 $e24) #b1 #b0))
(define-fun $e65 () (_ BitVec 1) (ite (= gamma_0 (bvnot $e25)) #b1 #b0))
(define-fun $e66 () (_ BitVec 1) (ite (= max_0 scan_0) #b1 #b0))
(define-fun $e67 () (_ BitVec 1) (bvand (bvnot $e33) $e66))
(define-fun $e68 () (_ BitVec 1) (bvand (bvnot $e39) (bvnot $e66)))
(define-fun $e69 () (_ BitVec 1) (bvand (bvnot $e67) (bvnot $e68)))
(define-fun $e70 () (_ BitVec 1) (bvand $e53 (bvnot $e69)))
(define-fun $e71 () (_ BitVec 1) (bvand (bvnot $e55) (bvnot $e70)))
(define-fun $e72 () (_ BitVec 1) (ite (= gamma_0 $e26) #b1 #b0))
(define-fun $e73 () (_ BitVec 1) (ite (= gamma_0 (bvnot $e27)) #b1 #b0))
(define-fun $e74 () (_ BitVec 1) (bvand (bvnot $e39) $e53))
(define-fun $e75 () (_ BitVec 1) (bvand (bvnot $e55) (bvnot $e74)))
(define-fun $e76 () (_ BitVec 1) (ite (= gamma_0 $e28) #b1 #b0))
(define-fun $e77 () (_ BitVec 1) (ite (= gamma_0 (bvnot $e29)) #b1 #b0))
(define-fun $e78 () (_ BitVec 1) (bvand (bvnot $e56) $e77))
(define-fun $e79 () (_ BitVec 1) (bvand (bvnot $e33) (bvnot $e77)))
(define-fun $e80 () (_ BitVec 1) (bvand (bvnot $e78) (bvnot $e79)))
(define-fun $e81 () (_ BitVec 1) (bvand (bvnot $e75) $e76))
(define-fun $e82 () (_ BitVec 1) (bvand (bvnot $e76) (bvnot $e80)))
(define-fun $e83 () (_ BitVec 1) (bvand (bvnot $e81) (bvnot $e82)))
(define-fun $e84 () (_ BitVec 1) (bvand $e73 (bvnot $e75)))
(define-fun $e85 () (_ BitVec 1) (bvand (bvnot $e73) (bvnot $e83)))
(define-fun $e86 () (_ BitVec 1) (bvand (bvnot $e84) (bvnot $e85)))
(define-fun $e87 () (_ BitVec 1) (bvand (bvnot $e56) $e72))
(define-fun $e88 () (_ BitVec 1) (bvand (bvnot $e72) (bvnot $e86)))
(define-fun $e89 () (_ BitVec 1) (bvand (bvnot $e87) (bvnot $e88)))
(define-fun $e90 () (_ BitVec 1) (bvand $e65 (bvnot $e71)))
(define-fun $e91 () (_ BitVec 1) (bvand (bvnot $e65) (bvnot $e89)))
(define-fun $e92 () (_ BitVec 1) (bvand (bvnot $e90) (bvnot $e91)))
(define-fun $e93 () (_ BitVec 1) (bvand (bvnot $e56) $e64))
(define-fun $e94 () (_ BitVec 1) (bvand (bvnot $e64) (bvnot $e92)))
(define-fun $e95 () (_ BitVec 1) (bvand (bvnot $e93) (bvnot $e94)))
(define-fun $e96 () (_ BitVec 1) (bvand (bvnot $e39) $e63))
(define-fun $e97 () (_ BitVec 1) (bvand (bvnot $e63) (bvnot $e95)))
(define-fun $e98 () (_ BitVec 1) (bvand (bvnot $e96) (bvnot $e97)))
(define-fun $e99 () (_ BitVec 1) (bvand (bvnot $e33) $e62))
(define-fun $e100 () (_ BitVec 1) (bvand (bvnot $e62) (bvnot $e98)))
(define-fun $e101 () (_ BitVec 1) (bvand (bvnot $e99) (bvnot $e100)))
(define-fun $e102 () (_ BitVec 1) (bvand (bvnot $e33) $e61))
(define-fun $e103 () (_ BitVec 1) (bvand (bvnot $e61) (bvnot $e101)))
(define-fun $e104 () (_ BitVec 1) (bvand (bvnot $e102) (bvnot $e103)))
(define-fun $e105 () (_ BitVec 1) (bvand (bvnot $e33) $e60))
(define-fun $e106 () (_ BitVec 1) (bvand (bvnot $e60) (bvnot $e104)))
(define-fun $e107 () (_ BitVec 1) (bvand (bvnot $e105) (bvnot $e106)))
(define-fun $e108 () (_ BitVec 1) (bvand (bvnot $e56) $e59))
(define-fun $e109 () (_ BitVec 1) (bvand (bvnot $e59) (bvnot $e107)))
(define-fun $e110 () (_ BitVec 1) (bvand (bvnot $e108) (bvnot $e109)))
(define-fun $e111 () (_ BitVec 1) (bvand (bvnot $e39) $e58))
(define-fun $e112 () (_ BitVec 1) (bvand (bvnot $e58) (bvnot $e110)))
(define-fun $e113 () (_ BitVec 1) (bvand (bvnot $e111) (bvnot $e112)))
(define-fun $e114 () (_ BitVec 1) (bvand (bvnot $e33) $e57))
(define-fun $e115 () (_ BitVec 1) (bvand (bvnot $e57) (bvnot $e113)))
(define-fun $e116 () (_ BitVec 1) (bvand (bvnot $e114) (bvnot $e115)))
(define-fun $e117 () (_ BitVec 1) (bvand $e52 (bvnot $e56)))
(define-fun $e118 () (_ BitVec 1) (bvand (bvnot $e52) (bvnot $e116)))
(define-fun $e119 () (_ BitVec 1) (bvand (bvnot $e117) (bvnot $e118)))
(define-fun $e120 () (_ BitVec 1) (bvand (bvnot $e39) $e51))
(define-fun $e121 () (_ BitVec 1) (bvand (bvnot $e51) (bvnot $e119)))
(define-fun $e122 () (_ BitVec 1) (bvand (bvnot $e120) (bvnot $e121)))
(define-fun $e123 () (_ BitVec 1) (bvand (bvnot $e33) $e50))
(define-fun $e124 () (_ BitVec 1) (bvand (bvnot $e50) (bvnot $e122)))
(define-fun $e125 () (_ BitVec 1) (bvand (bvnot $e123) (bvnot $e124)))
(define-fun $e126 () (_ BitVec 1) (bvand (bvnot $e33) $e49))
(define-fun $e127 () (_ BitVec 1) (bvand (bvnot $e49) (bvnot $e125)))
(define-fun $e128 () (_ BitVec 1) (bvand (bvnot $e126) (bvnot $e127)))
(define-fun $e129 () (_ BitVec 1) (bvand (bvnot $e33) $e48))
(define-fun $e130 () (_ BitVec 1) (bvand (bvnot $e48) (bvnot $e128)))
(define-fun $e131 () (_ BitVec 1) (bvand (bvnot $e129) (bvnot $e130)))
(define-fun $e132 () (_ BitVec 1) (bvand (bvnot $e33) $e47))
(define-fun $e133 () (_ BitVec 1) (bvand (bvnot $e47) (bvnot $e131)))
(define-fun $e134 () (_ BitVec 1) (bvand (bvnot $e132) (bvnot $e133)))
(define-fun $e135 () (_ BitVec 1) (bvand $e40 (bvnot $e46)))
(define-fun $e136 () (_ BitVec 1) (bvand (bvnot $e40) (bvnot $e134)))
(define-fun $e137 () (_ BitVec 1) (bvand (bvnot $e135) (bvnot $e136)))
(define-fun $e138 () (_ BitVec 1) (bvand $e38 (bvnot $e39)))
(define-fun $e139 () (_ BitVec 1) (bvand (bvnot $e38) (bvnot $e137)))
(define-fun $e140 () (_ BitVec 1) (bvand (bvnot $e138) (bvnot $e139)))
(define-fun $e141 () (_ BitVec 1) (bvand (bvnot $e33) $e37))
(define-fun $e142 () (_ BitVec 1) (bvand (bvnot $e37) (bvnot $e140)))
(define-fun $e143 () (_ BitVec 1) (bvand (bvnot $e141) (bvnot $e142)))
(define-fun $e144 () (_ BitVec 1) (bvand (bvnot $e33) $e36))
(define-fun $e145 () (_ BitVec 1) (bvand (bvnot $e36) (bvnot $e143)))
(define-fun $e146 () (_ BitVec 1) (bvand (bvnot $e144) (bvnot $e145)))
(define-fun $e147 () (_ BitVec 1) (bvand (bvnot $e33) $e35))
(define-fun $e148 () (_ BitVec 1) (bvand (bvnot $e35) (bvnot $e146)))
(define-fun $e149 () (_ BitVec 1) (bvand (bvnot $e147) (bvnot $e148)))
(define-fun $e150 () (_ BitVec 1) (bvand (bvnot $e31) $e34))
(define-fun $e151 () (_ BitVec 1) (bvand (bvnot $e34) (bvnot $e149)))
(define-fun $e152 () (_ BitVec 1) (bvand (bvnot $e150) (bvnot $e151)))
(define-fun $e153 () (_ BitVec 1) (bvand $e32 (bvnot $e33)))
(define-fun $e154 () (_ BitVec 1) (bvand (bvnot $e32) (bvnot $e152)))
(define-fun $e155 () (_ BitVec 1) (bvand (bvnot $e153) (bvnot $e154)))
(define-fun $e156 () (_ BitVec 1) (bvand reset_1 (bvnot $e31)))
(define-fun $e157 () (_ BitVec 1) (bvand (bvnot reset_1) (bvnot $e155)))
(define-fun $e158 () (_ BitVec 1) (ite (= nloss_0 nloss_1) #b1 #b0))
(define-fun $e159 () (_ BitVec 4) (bvmul scan_0 $e30))
(define-fun $e160 () (_ BitVec 4) (bvmul max_0 $e10))
(define-fun $e161 () (_ BitVec 4) (bvadd $e159 $e160))
(define-fun $e162 () (_ BitVec 1) (ite (= count_0 $e161) #b1 #b0))
(define-fun $e163 () (_ BitVec 1) (bvand autoname_4 (bvnot nloss_1)))
(define-fun $e164 () (_ BitVec 1) (bvand (bvnot autoname_4) (bvnot $e158)))
(define-fun $e165 () (_ BitVec 1) (bvand (bvnot $e163) (bvnot $e164)))
(define-fun $e166 () (_ BitVec 1) (bvand autoname_3 (bvnot nloss_1)))
(define-fun $e167 () (_ BitVec 1) (bvand (bvnot autoname_3) (bvnot $e165)))
(define-fun $e168 () (_ BitVec 1) (bvand (bvnot $e166) (bvnot $e167)))
(define-fun $e169 () (_ BitVec 1) (bvand autoname_2 (bvnot nloss_1)))
(define-fun $e170 () (_ BitVec 1) (bvand (bvnot autoname_2) (bvnot $e168)))
(define-fun $e171 () (_ BitVec 1) (bvand (bvnot $e169) (bvnot $e170)))
(define-fun $e172 () (_ BitVec 1) (bvand autoname_1 (bvnot nloss_1)))
(define-fun $e173 () (_ BitVec 1) (bvand (bvnot autoname_1) (bvnot $e171)))
(define-fun $e174 () (_ BitVec 1) (bvand (bvnot $e172) (bvnot $e173)))
(define-fun $e175 () (_ BitVec 1) (bvand (bvnot nloss_1) $e162))
(define-fun $e176 () (_ BitVec 1) (bvand (bvnot $e162) (bvnot $e174)))
(define-fun $e177 () (_ BitVec 1) (bvand (bvnot $e175) (bvnot $e176)))
(define-fun $e178 () (_ BitVec 1) (bvand $e50 (bvnot $e177)))
(define-fun $e179 () (_ BitVec 1) (bvand (bvnot $e50) (bvnot $e158)))
(define-fun $e180 () (_ BitVec 1) (bvand (bvnot $e178) (bvnot $e179)))
(define-fun $e181 () (_ BitVec 1) (bvand $e49 (bvnot $e158)))
(define-fun $e182 () (_ BitVec 1) (bvand (bvnot $e49) (bvnot $e180)))
(define-fun $e183 () (_ BitVec 1) (bvand (bvnot $e181) (bvnot $e182)))
(define-fun $e184 () (_ BitVec 1) (bvand $e48 (bvnot $e158)))
(define-fun $e185 () (_ BitVec 1) (bvand (bvnot $e48) (bvnot $e183)))
(define-fun $e186 () (_ BitVec 1) (bvand (bvnot $e184) (bvnot $e185)))
(define-fun $e187 () (_ BitVec 1) (bvand $e47 (bvnot $e158)))
(define-fun $e188 () (_ BitVec 1) (bvand (bvnot $e47) (bvnot $e186)))
(define-fun $e189 () (_ BitVec 1) (bvand (bvnot $e187) (bvnot $e188)))
(define-fun $e190 () (_ BitVec 1) (bvand $e40 (bvnot $e158)))
(define-fun $e191 () (_ BitVec 1) (bvand (bvnot $e40) (bvnot $e189)))
(define-fun $e192 () (_ BitVec 1) (bvand (bvnot $e190) (bvnot $e191)))
(define-fun $e193 () (_ BitVec 1) (bvand $e38 (bvnot $e158)))
(define-fun $e194 () (_ BitVec 1) (bvand (bvnot $e38) (bvnot $e192)))
(define-fun $e195 () (_ BitVec 1) (bvand (bvnot $e193) (bvnot $e194)))
(define-fun $e196 () (_ BitVec 1) (bvand $e37 (bvnot $e158)))
(define-fun $e197 () (_ BitVec 1) (bvand (bvnot $e37) (bvnot $e195)))
(define-fun $e198 () (_ BitVec 1) (bvand (bvnot $e196) (bvnot $e197)))
(define-fun $e199 () (_ BitVec 1) (bvand $e36 (bvnot $e158)))
(define-fun $e200 () (_ BitVec 1) (bvand (bvnot $e36) (bvnot $e198)))
(define-fun $e201 () (_ BitVec 1) (bvand (bvnot $e199) (bvnot $e200)))
(define-fun $e202 () (_ BitVec 1) (bvand $e35 (bvnot $e158)))
(define-fun $e203 () (_ BitVec 1) (bvand (bvnot $e35) (bvnot $e201)))
(define-fun $e204 () (_ BitVec 1) (bvand (bvnot $e202) (bvnot $e203)))
(define-fun $e205 () (_ BitVec 1) (bvand nloss_1 $e34))
(define-fun $e206 () (_ BitVec 1) (bvand (bvnot $e34) (bvnot $e204)))
(define-fun $e207 () (_ BitVec 1) (bvand (bvnot $e205) (bvnot $e206)))
(define-fun $e208 () (_ BitVec 1) (bvand $e32 (bvnot $e158)))
(define-fun $e209 () (_ BitVec 1) (bvand (bvnot $e32) (bvnot $e207)))
(define-fun $e210 () (_ BitVec 1) (bvand (bvnot $e208) (bvnot $e209)))
(define-fun $e211 () (_ BitVec 1) (bvand nloss_1 reset_1))
(define-fun $e212 () (_ BitVec 1) (bvand (bvnot reset_1) (bvnot $e210)))
(assert (not (= (bvnot $e211) #b0)))
(assert (not (= (bvnot $e212) #b0)))
(assert (not (= (bvnot $e156) #b0)))
(assert (not (= (bvnot $e157) #b0)))
(check-sat)
(exit)
